(set-info :origin "SVCOMP13 benchmarks generated by Arie Gurfinkel")
(set-info :status unsat)
(set-logic HORN)
(declare-fun cp-rel-bb.i
             (Real
              Real
              Real
              Real
              Real
              Real
              Real
              Real
              Real
              Real
              Real
              Real
              Real
              Real
              Real
              Real
              Real
              Real
              Real
              Real
              Real
              Real)
             Bool)
(declare-fun cp-rel-entry () Bool)
(declare-fun cp-rel-__UFO__0
             (Real
              Real
              Real
              Real
              Real
              Real
              Real
              Real
              Real
              Real
              Real
              Real
              Real
              Real
              Real
              Real
              Real
              Real
              Real
              Real
              Real
              Real)
             Bool)
(declare-fun cp-rel-UnifiedReturnBlock () Bool)
(assert |cp-rel-entry|)
(assert (forall ((?A Real) (?B Real) (?C Real) (?D Real) (?E Real) (?F Real) (?G Real) (?H Real) (?I Real) (?J Real) (?K Real) (?L Real) (?M Real) (?N Real) (?O Real) (?P Real) (?Q Real) (?R Real) (?S Real) (?T Real) (?U Real) (?V Real) (?W Bool) )(let (($x248594 (|cp-rel-bb.i| ?A ?B ?C ?D ?E ?F ?G ?H ?I ?J ?K ?L ?M ?N ?O ?P ?Q ?R ?S ?T ?U ?V)))
(let (($x81795 (= ?W true)))
(let (($x32032 (and |cp-rel-entry| (<= ?V 0.0) (>= ?U 0.0) (<= ?U 0.0) (>= ?T 0.0) (<= ?T 0.0) (>= ?S 0.0) (<= ?S 0.0) (>= ?R 0.0) (<= ?R 0.0) (>= ?Q 0.0) (<= ?Q 0.0) (>= ?P 123.0) (<= ?P 123.0) (>= ?O 0.0) (<= ?O 0.0) (>= ?N 0.0) (<= ?N 0.0) (>= ?M 0.0) (<= ?M 0.0) (>= ?L 0.0) (<= ?L 0.0) (>= ?K 0.0) (<= ?K 0.0) (>= ?J 0.0) (<= ?J 0.0) (>= ?I 0.0) (<= ?I 0.0) (>= ?H 0.0) (<= ?H 0.0) (>= ?G 0.0) (<= ?G 0.0) (>= ?F 0.0) (<= ?F 0.0) (>= ?E 0.0) (<= ?E 0.0) (>= ?D 0.0) (<= ?D 0.0) (>= ?C 0.0) (<= ?C 0.0) (>= ?B 0.0) (<= ?B 0.0) (>= ?A 0.0) (<= ?A 0.0) $x81795 (>= ?V 0.0))))
(=> $x32032 $x248594)))))
)
(assert (forall ((?A Real) (?B Real) (?C Real) (?D Real) (?E Real) (?F Real) (?G Real) (?H Real) (?I Real) (?J Real) (?K Real) (?L Real) (?M Real) (?N Real) (?O Real) (?P Real) (?Q Real) (?R Real) (?S Real) (?T Real) (?U Real) (?V Real) (?W Real) (?X Real) (?Y Real) (?Z Real) (?A1 Real) (?B1 Real) (?C1 Real) (?D1 Real) (?E1 Real) (?F1 Real) (?G1 Real) (?H1 Real) (?I1 Real) (?J1 Real) (?K1 Real) (?L1 Real) (?M1 Real) (?N1 Real) (?O1 Real) (?P1 Real) (?Q1 Real) (?R1 Real) (?S1 Bool) (?T1 Bool) (?U1 Bool) (?V1 Bool) (?W1 Bool) (?X1 Bool) (?Y1 Bool) (?Z1 Bool) (?A2 Bool) (?B2 Bool) (?C2 Bool) (?D2 Bool) (?E2 Bool) (?F2 Bool) (?G2 Bool) (?H2 Bool) (?I2 Bool) (?J2 Bool) (?K2 Bool) (?L2 Bool) (?M2 Bool) (?N2 Bool) (?O2 Bool) (?P2 Bool) (?Q2 Bool) (?R2 Bool) (?S2 Bool) (?T2 Bool) (?U2 Bool) (?V2 Bool) (?W2 Bool) (?X2 Bool) (?Y2 Bool) (?Z2 Bool) (?A3 Bool) (?B3 Bool) (?C3 Bool) (?D3 Bool) (?E3 Bool) (?F3 Bool) (?G3 Bool) (?H3 Bool) (?I3 Bool) (?J3 Bool) (?K3 Bool) (?L3 Bool) (?M3 Bool) (?N3 Bool) (?O3 Bool) (?P3 Bool) (?Q3 Bool) (?R3 Bool) (?S3 Bool) (?T3 Bool) (?U3 Bool) (?V3 Bool) (?W3 Bool) (?X3 Bool) (?Y3 Bool) (?Z3 Bool) (?A4 Bool) (?B4 Bool) (?C4 Bool) (?D4 Bool) (?E4 Bool) (?F4 Bool) (?G4 Bool) (?H4 Bool) (?I4 Bool) (?J4 Bool) (?K4 Bool) (?L4 Bool) (?M4 Bool) (?N4 Bool) (?O4 Bool) (?P4 Bool) (?Q4 Bool) (?R4 Bool) (?S4 Bool) (?T4 Bool) (?U4 Real) (?V4 Real) (?W4 Real) (?X4 Real) (?Y4 Real) (?Z4 Real) (?A5 Real) (?B5 Real) (?C5 Real) (?D5 Real) (?E5 Real) (?F5 Real) )(let (($x761045 (|cp-rel-bb.i| ?W ?X ?Y ?Z ?A1 ?B1 ?C1 ?D1 ?E1 ?F1 ?G1 ?H1 ?I1 ?J1 ?K1 ?L1 ?M1 ?N1 ?O1 ?P1 ?Q1 ?R1)))
(let (($x568358 (not ?M2)))
(let (($x172227 (or $x568358 ?N2)))
(let (($x243126 (not ?V3)))
(let (($x858661 (or $x243126 ?W3)))
(let (($x513392 (not ?C4)))
(let (($x434091 (or $x513392 ?D4)))
(let (($x414086 (not ?Q4)))
(let (($x580156 (or $x414086 ?R4)))
(let (($x509064 (>= ?R1 ?V)))
(let (($x416559 (<= ?R1 ?V)))
(let (($x515036 (>= ?Q1 ?U)))
(let (($x513598 (<= ?Q1 ?U)))
(let (($x204862 (>= ?O1 ?S)))
(let (($x490425 (<= ?O1 ?S)))
(let (($x568229 (>= ?N1 ?R)))
(let (($x804035 (<= ?N1 ?R)))
(let (($x703440 (>= ?L1 ?P)))
(let (($x153787 (<= ?L1 ?P)))
(let (($x191155 (>= ?K1 ?O)))
(let (($x310512 (<= ?K1 ?O)))
(let (($x568164 (>= ?J1 ?N)))
(let (($x378397 (<= ?J1 ?N)))
(let (($x674685 (>= ?I1 ?M)))
(let (($x157881 (<= ?I1 ?M)))
(let (($x73089 (>= ?G1 ?K)))
(let (($x289686 (<= ?G1 ?K)))
(let (($x260228 (>= ?F1 ?J)))
(let (($x244520 (<= ?F1 ?J)))
(let (($x608157 (>= ?E1 ?I)))
(let (($x596815 (<= ?E1 ?I)))
(let (($x243874 (>= ?D1 ?H)))
(let (($x286649 (<= ?D1 ?H)))
(let (($x716628 (>= ?C1 ?G)))
(let (($x902634 (<= ?C1 ?G)))
(let (($x102782 (>= ?B1 ?F)))
(let (($x890645 (<= ?B1 ?F)))
(let (($x302710 (>= ?A1 ?E)))
(let (($x500065 (<= ?A1 ?E)))
(let (($x515030 (>= ?Z ?D)))
(let (($x282038 (<= ?Z ?D)))
(let (($x751250 (>= ?Y ?C)))
(let (($x568187 (<= ?Y ?C)))
(let (($x422066 (>= ?X ?B)))
(let (($x255271 (<= ?X ?B)))
(let (($x719664 (>= ?W ?U4)))
(let (($x568183 (<= ?W ?U4)))
(let (($x517954 (and ?D2 $x568183 $x719664 $x255271 $x422066 $x568187 $x751250 $x282038 $x515030 $x500065 $x302710 $x890645 $x102782 $x902634 $x716628 $x286649 $x243874 $x596815 $x608157 $x244520 $x260228 $x289686 $x73089 (<= ?H1 1.0) (>= ?H1 1.0) $x157881 $x674685 $x378397 $x568164 $x310512 $x191155 $x153787 $x703440 (<= ?M1 2.0) (>= ?M1 2.0) $x804035 $x568229 $x490425 $x204862 (<= ?P1 456.0) (>= ?P1 456.0) $x513598 $x515036 $x416559 $x509064)))
(let (($x810518 (>= ?P1 ?T)))
(let (($x587372 (<= ?P1 ?T)))
(let (($x272559 (>= ?M1 ?Q)))
(let (($x175728 (<= ?M1 ?Q)))
(let (($x887116 (>= ?H1 ?L)))
(let (($x493024 (<= ?H1 ?L)))
(let (($x699580 (not ?K2)))
(let (($x646235 (and ?F2 $x699580 $x568183 $x719664 $x255271 $x422066 $x568187 $x751250 $x282038 $x515030 $x500065 $x302710 $x890645 $x102782 $x902634 $x716628 $x286649 $x243874 $x596815 $x608157 $x244520 $x260228 (<= ?G1 1.0) (>= ?G1 1.0) $x493024 $x887116 $x157881 $x674685 $x378397 $x568164 $x310512 $x191155 $x153787 $x703440 $x175728 $x272559 $x804035 $x568229 $x490425 $x204862 $x587372 $x810518 $x513598 $x515036 $x416559 $x509064)))
(let (($x876821 (not ?R2)))
(let (($x388918 (and ?M2 $x876821 $x568183 $x719664 $x255271 $x422066 $x568187 $x751250 $x282038 $x515030 $x500065 $x302710 $x890645 $x102782 $x902634 $x716628 $x286649 $x243874 $x596815 $x608157 (<= ?F1 1.0) (>= ?F1 1.0) $x289686 $x73089 $x493024 $x887116 $x157881 $x674685 $x378397 $x568164 $x310512 $x191155 $x153787 $x703440 $x175728 $x272559 $x804035 $x568229 $x490425 $x204862 $x587372 $x810518 $x513598 $x515036 $x416559 $x509064)))
(let (($x802286 (not ?Y2)))
(let (($x871121 (and ?T2 $x802286 $x568183 $x719664 $x255271 $x422066 $x568187 $x751250 $x282038 $x515030 $x500065 $x302710 $x890645 $x102782 $x902634 $x716628 $x286649 $x243874 (<= ?E1 1.0) (>= ?E1 1.0) $x244520 $x260228 $x289686 $x73089 $x493024 $x887116 $x157881 $x674685 $x378397 $x568164 $x310512 $x191155 $x153787 $x703440 $x175728 $x272559 (<= ?N1 1.0) (>= ?N1 1.0) $x490425 $x204862 $x587372 $x810518 (<= ?Q1 123.0) (>= ?Q1 123.0) $x416559 $x509064)))
(let (($x513930 (not ?F3)))
(let (($x550593 (and ?A3 $x513930 $x568183 $x719664 $x255271 $x422066 $x568187 $x751250 $x282038 $x515030 $x500065 $x302710 $x890645 $x102782 $x902634 $x716628 (<= ?D1 1.0) (>= ?D1 1.0) $x596815 $x608157 $x244520 $x260228 $x289686 $x73089 $x493024 $x887116 $x157881 $x674685 $x378397 $x568164 $x310512 $x191155 $x153787 $x703440 $x175728 $x272559 $x804035 $x568229 (<= ?O1 2.0) (>= ?O1 2.0) $x587372 $x810518 $x513598 $x515036 (<= ?R1 456.0) (>= ?R1 456.0))))
(let (($x552493 (and ?H3 (not ?M3) $x568183 $x719664 $x255271 $x422066 $x568187 $x751250 $x282038 $x515030 $x500065 $x302710 $x890645 $x102782 (<= ?C1 1.0) (>= ?C1 1.0) $x286649 $x243874 $x596815 $x608157 $x244520 $x260228 $x289686 $x73089 $x493024 $x887116 $x157881 $x674685 $x378397 $x568164 $x310512 $x191155 $x153787 $x703440 $x175728 $x272559 $x804035 $x568229 $x490425 $x204862 $x587372 $x810518 $x513598 $x515036 $x416559 $x509064)))
(let (($x558203 (not ?T3)))
(let (($x455897 (and ?O3 $x558203 $x568183 $x719664 $x255271 $x422066 $x568187 $x751250 $x282038 $x515030 $x500065 $x302710 (<= ?B1 1.0) (>= ?B1 1.0) $x902634 $x716628 $x286649 $x243874 $x596815 $x608157 $x244520 $x260228 $x289686 $x73089 $x493024 $x887116 $x157881 $x674685 $x378397 $x568164 $x310512 $x191155 $x153787 $x703440 $x175728 $x272559 $x804035 $x568229 $x490425 $x204862 $x587372 $x810518 $x513598 $x515036 $x416559 $x509064)))
(let (($x233601 (not ?A4)))
(let (($x209274 (and ?V3 $x233601 $x568183 $x719664 $x255271 $x422066 $x568187 $x751250 $x282038 $x515030 (<= ?A1 1.0) (>= ?A1 1.0) $x890645 $x102782 $x902634 $x716628 $x286649 $x243874 $x596815 $x608157 $x244520 $x260228 $x289686 $x73089 $x493024 $x887116 (<= ?I1 1.0) (>= ?I1 1.0) (<= ?J1 2.0) (>= ?J1 2.0) (<= ?K1 3.0) (>= ?K1 3.0) $x153787 $x703440 $x175728 $x272559 $x804035 $x568229 $x490425 $x204862 $x587372 $x810518 $x513598 $x515036 $x416559 $x509064)))
(let (($x847970 (not ?H4)))
(let (($x45037 (and ?C4 $x847970 $x568183 $x719664 $x255271 $x422066 $x568187 $x751250 (<= ?Z 1.0) (>= ?Z 1.0) $x500065 $x302710 $x890645 $x102782 $x902634 $x716628 $x286649 $x243874 $x596815 $x608157 $x244520 $x260228 $x289686 $x73089 $x493024 $x887116 $x157881 $x674685 $x378397 $x568164 $x310512 $x191155 $x153787 $x703440 $x175728 $x272559 $x804035 $x568229 (<= ?O1 1.0) (>= ?O1 1.0) $x587372 $x810518 $x513598 $x515036 (<= ?R1 123.0) (>= ?R1 123.0))))
(let (($x802448 (and ?J4 (not ?O4) $x568183 $x719664 $x255271 $x422066 (<= ?Y 1.0) (>= ?Y 1.0) $x282038 $x515030 $x500065 $x302710 $x890645 $x102782 $x902634 $x716628 $x286649 $x243874 $x596815 $x608157 $x244520 $x260228 $x289686 $x73089 $x493024 $x887116 $x157881 $x674685 $x378397 $x568164 $x310512 $x191155 (<= ?L1 777.0) (>= ?L1 777.0) $x175728 $x272559 $x804035 $x568229 $x490425 $x204862 $x587372 $x810518 $x513598 $x515036 $x416559 $x509064)))
(let (($x483414 (not ?T4)))
(let (($x902744 (and ?Q4 $x483414 $x568183 $x719664 (<= ?X 1.0) (>= ?X 1.0) $x568187 $x751250 $x282038 $x515030 $x500065 $x302710 $x890645 $x102782 $x902634 $x716628 $x286649 $x243874 $x596815 $x608157 $x244520 $x260228 $x289686 $x73089 $x493024 $x887116 $x157881 $x674685 $x378397 $x568164 $x310512 $x191155 $x153787 $x703440 $x175728 $x272559 $x804035 $x568229 (<= ?O1 1.0) (>= ?O1 1.0) $x587372 $x810518 $x513598 $x515036 (<= ?R1 123.0) (>= ?R1 123.0))))
(let (($x133591 (|cp-rel-bb.i| ?A ?B ?C ?D ?E ?F ?G ?H ?I ?J ?K ?L ?M ?N ?O ?P ?Q ?R ?S ?T ?U ?V)))
(let (($x223219 (and $x133591 (= ?S4 (= ?B 0.0)) (= ?O4 (= ?E5 0.0)) (= ?L4 (= ?C 0.0)) (= ?H4 (= ?D5 0.0)) (= ?E4 (= ?D 0.0)) (= ?A4 (= ?C5 0.0)) (= ?X3 (= ?E 0.0)) (= ?T3 (= ?B5 0.0)) (= ?Q3 (= ?F 0.0)) (= ?M3 (= ?A5 0.0)) (= ?J3 (= ?G 0.0)) (= ?F3 (= ?Z4 0.0)) (= ?C3 (= ?H 0.0)) (= ?Y2 (= ?Y4 0.0)) (= ?V2 (= ?I 0.0)) (= ?R2 (= ?X4 0.0)) (= ?O2 (= ?J 0.0)) (= ?K2 (= ?W4 0.0)) (= ?H2 (= ?K 0.0)) (= ?B2 (= ?V4 0.0)) (= ?Y1 (= ?L 0.0)) (= ?U4 (+ 1.0 ?A)) (= ?V1 (not (<= ?A 3.0))) (or $x902744 $x802448 $x45037 $x209274 $x455897 $x552493 $x550593 $x871121 $x388918 $x646235 $x517954) $x580156 (or $x414086 (and ?M4 ?R4 ?S4)) (or (not ?M4) (and ?N4 (not ?P4)) (and ?P4 (not ?N4))) (or (not ?M4) (and ?J4 ?N4 ?O4) (and ?F4 ?P4 (not ?L4))) (or (not ?J4) ?K4) (or (not ?J4) (and ?F4 ?K4 ?L4)) (or (not ?F4) (and ?G4 (not ?I4)) (and ?I4 (not ?G4))) (or (not ?F4) (and ?C4 ?G4 ?H4) (and ?Y3 ?I4 (not ?E4))) $x434091 (or $x513392 (and ?Y3 ?D4 ?E4)) (or (not ?Y3) (and ?Z3 (not ?B4)) (and ?B4 (not ?Z3))) (or (not ?Y3) (and ?V3 ?Z3 ?A4) (and ?R3 ?B4 (not ?X3))) $x858661 (or $x243126 (and ?R3 ?W3 ?X3)) (or (not ?R3) (and ?S3 (not ?U3)) (and ?U3 (not ?S3))) (or (not ?R3) (and ?O3 ?S3 ?T3) (and ?K3 ?U3 (not ?Q3))) (or (not ?O3) ?P3) (or (not ?O3) (and ?K3 ?P3 ?Q3)) (or (not ?K3) (and ?L3 (not ?N3)) (and ?N3 (not ?L3))) (or (not ?K3) (and ?H3 ?L3 ?M3) (and ?D3 ?N3 (not ?J3))) (or (not ?H3) ?I3) (or (not ?H3) (and ?D3 ?I3 ?J3)) (or (not ?D3) (and ?E3 (not ?G3)) (and ?G3 (not ?E3))) (or (not ?D3) (and ?A3 ?E3 ?F3) (and ?W2 ?G3 (not ?C3))) (or (not ?A3) ?B3) (or (not ?A3) (and ?W2 ?B3 ?C3)) (or (not ?W2) (and ?X2 (not ?Z2)) (and ?Z2 (not ?X2))) (or (not ?W2) (and ?T2 ?X2 ?Y2) (and ?P2 ?Z2 (not ?V2))) (or (not ?T2) ?U2) (or (not ?T2) (and ?P2 ?U2 ?V2)) (or (not ?P2) (and ?Q2 (not ?S2)) (and ?S2 (not ?Q2))) (or (not ?P2) (and ?M2 ?Q2 ?R2) (and ?I2 ?S2 (not ?O2))) $x172227 (or $x568358 (and ?I2 ?N2 ?O2)) (or (not ?I2) (and ?J2 (not ?L2)) (and ?L2 (not ?J2))) (or (not ?I2) (and ?F2 ?J2 ?K2) (and ?Z1 ?L2 (not ?H2))) (or (not ?F2) ?G2) (or (not ?F2) (and ?Z1 ?G2 ?H2)) (or (not ?D2) ?E2) (or (not ?D2) (and ?W1 ?E2 (not ?B2))) (or (not ?Z1) (and ?A2 (not ?C2)) (and ?C2 (not ?A2))) (or (not ?Z1) (and ?W1 ?A2 ?B2) (and ?S1 ?C2 (not ?Y1))) (or (not ?W1) ?X1) (or (not ?W1) (and ?S1 ?X1 ?Y1)) (or (not ?S1) ?U1) (or (not ?S1) (and ?T1 ?U1 (not ?V1))) (= ?T4 (= ?F5 0.0)))))
(=> $x223219 $x761045))))))))))))))))))))))))))))))))))))))))))))))))))))))))))))))))))))))))))))
)
(assert (forall ((?A Real) (?B Real) (?C Real) (?D Real) (?E Real) (?F Real) (?G Real) (?H Real) (?I Real) (?J Real) (?K Real) (?L Real) (?M Real) (?N Real) (?O Real) (?P Real) (?Q Real) (?R Real) (?S Real) (?T Real) (?U Real) (?V Real) (?W Bool) (?X Bool) (?Y Bool) (?Z Bool) (?A1 Bool) (?B1 Bool) (?C1 Bool) (?D1 Bool) (?E1 Bool) (?F1 Bool) (?G1 Bool) (?H1 Bool) (?I1 Bool) (?J1 Bool) (?K1 Bool) (?L1 Bool) (?M1 Bool) (?N1 Bool) (?O1 Bool) (?P1 Bool) (?Q1 Bool) (?R1 Bool) (?S1 Bool) (?T1 Bool) (?U1 Bool) (?V1 Bool) (?W1 Bool) (?X1 Bool) (?Y1 Bool) (?Z1 Bool) (?A2 Bool) (?B2 Bool) (?C2 Bool) (?D2 Bool) (?E2 Bool) (?F2 Bool) (?G2 Bool) (?H2 Bool) (?I2 Bool) (?J2 Bool) (?K2 Bool) (?L2 Bool) (?M2 Bool) (?N2 Bool) (?O2 Bool) (?P2 Bool) (?Q2 Bool) (?R2 Bool) (?S2 Bool) (?T2 Bool) (?U2 Bool) (?V2 Bool) (?W2 Bool) (?X2 Bool) (?Y2 Bool) (?Z2 Bool) (?A3 Bool) (?B3 Bool) (?C3 Bool) (?D3 Bool) (?E3 Bool) (?F3 Bool) (?G3 Bool) (?H3 Bool) (?I3 Bool) (?J3 Bool) (?K3 Bool) (?L3 Bool) (?M3 Bool) (?N3 Bool) (?O3 Bool) (?P3 Bool) (?Q3 Bool) (?R3 Bool) (?S3 Bool) (?T3 Bool) (?U3 Bool) (?V3 Bool) (?W3 Real) (?X3 Real) (?Y3 Real) (?Z3 Real) (?A4 Real) (?B4 Real) (?C4 Real) (?D4 Real) (?E4 Real) (?F4 Real) (?G4 Real) (?H4 Real) (?I4 Bool) (?J4 Bool) (?K4 Bool) (?L4 Bool) (?M4 Bool) (?N4 Bool) (?O4 Bool) (?P4 Bool) (?Q4 Bool) (?R4 Bool) (?S4 Bool) (?T4 Bool) (?U4 Bool) (?V4 Bool) (?W4 Bool) (?X4 Bool) (?Y4 Bool) (?Z4 Bool) (?A5 Bool) (?B5 Bool) (?C5 Bool) (?D5 Bool) (?E5 Bool) (?F5 Bool) (?G5 Bool) (?H5 Bool) (?I5 Bool) (?J5 Bool) (?K5 Bool) (?L5 Bool) (?M5 Bool) (?N5 Bool) (?O5 Bool) (?P5 Bool) (?Q5 Bool) (?R5 Bool) (?S5 Real) (?T5 Bool) (?U5 Bool) (?V5 Bool) (?W5 Bool) (?X5 Bool) (?Y5 Bool) (?Z5 Bool) (?A6 Bool) (?B6 Bool) (?C6 Bool) (?D6 Bool) (?E6 Bool) (?F6 Bool) (?G6 Bool) (?H6 Bool) (?I6 Bool) (?J6 Bool) (?K6 Bool) (?L6 Bool) (?M6 Bool) (?N6 Bool) (?O6 Bool) (?P6 Bool) (?Q6 Bool) (?R6 Bool) (?S6 Bool) (?T6 Bool) (?U6 Bool) (?V6 Bool) (?W6 Bool) (?X6 Bool) (?Y6 Bool) (?Z6 Bool) (?A7 Bool) (?B7 Real) (?C7 Bool) (?D7 Bool) (?E7 Bool) (?F7 Bool) (?G7 Bool) (?H7 Bool) (?I7 Bool) (?J7 Bool) (?K7 Bool) (?L7 Bool) (?M7 Bool) (?N7 Bool) (?O7 Bool) (?P7 Bool) (?Q7 Bool) (?R7 Bool) (?S7 Bool) (?T7 Bool) (?U7 Bool) (?V7 Bool) (?W7 Bool) (?X7 Bool) (?Y7 Bool) (?Z7 Bool) (?A8 Bool) (?B8 Bool) (?C8 Bool) (?D8 Bool) (?E8 Bool) (?F8 Bool) (?G8 Real) (?H8 Bool) (?I8 Bool) (?J8 Bool) (?K8 Bool) (?L8 Bool) (?M8 Bool) (?N8 Bool) (?O8 Bool) (?P8 Bool) (?Q8 Bool) (?R8 Bool) (?S8 Bool) (?T8 Bool) (?U8 Bool) (?V8 Bool) (?W8 Bool) (?X8 Bool) (?Y8 Bool) (?Z8 Bool) (?A9 Bool) (?B9 Bool) (?C9 Bool) (?D9 Bool) (?E9 Bool) (?F9 Bool) (?G9 Bool) (?H9 Bool) (?I9 Real) (?J9 Bool) (?K9 Bool) (?L9 Bool) (?M9 Bool) (?N9 Bool) (?O9 Bool) (?P9 Bool) (?Q9 Bool) (?R9 Bool) (?S9 Bool) (?T9 Bool) (?U9 Bool) (?V9 Real) (?W9 Bool) (?X9 Bool) (?Y9 Bool) (?Z9 Bool) )(let (($x306773 (|cp-rel-__UFO__0| ?A ?B ?C ?D ?E ?F ?G ?H ?I ?J ?K ?L ?M ?N ?O ?P ?Q ?R ?S ?T ?U ?V)))
(let (($x642057 (or (not ?I4) (and ?S3 ?J4 ?V3) (and ?O3 ?K4 (not ?U3)) (and ?X ?L4 ?Z))))
(let (($x522389 (or (not ?I4) (and ?J4 (not ?K4) (not ?L4)) (and ?K4 (not ?J4) (not ?L4)) (and ?L4 (not ?J4) (not ?K4)))))
(let (($x472409 (not ?P5)))
(let (($x179891 (or $x472409 (and ?M5 ?Q5 ?R5 (<= ?S5 ?V) (>= ?S5 ?V)) (and ?J5 ?T5 ?U5 (<= ?S5 ?U) (>= ?S5 ?U)) (and ?U4 ?V5 ?W5 (<= ?S5 ?T) (>= ?S5 ?T)))))
(let (($x606033 (or $x472409 (and ?Q5 (not ?T5) (not ?V5)) (and ?T5 (not ?Q5) (not ?V5)) (and ?V5 (not ?Q5) (not ?T5)))))
(let (($x507957 (not ?X5)))
(let (($x568120 (or $x507957 ?Y5)))
(let (($x686233 (not ?A6)))
(let (($x191709 (or $x686233 ?B6)))
(let (($x646241 (not ?D6)))
(let (($x148994 (or $x646241 ?E6)))
(let (($x128537 (not ?I6)))
(let (($x562232 (or $x128537 ?J6)))
(let (($x346105 (not ?K6)))
(let (($x608715 (or $x346105 ?L6)))
(let (($x232935 (not ?N6)))
(let (($x143048 (or $x232935 ?O6)))
(let (($x810008 (not ?V6)))
(let (($x887238 (not ?Y6)))
(let (($x637560 (or $x887238 (and ?S6 ?Z6 ?A7 (<= ?B7 ?V) (>= ?B7 ?V)) (and ?P6 ?C7 ?D7 (<= ?B7 ?U) (>= ?B7 ?U)) (and ?D6 ?E7 ?F7 (<= ?B7 ?T) (>= ?B7 ?T)))))
(let (($x268889 (or $x887238 (and ?Z6 (not ?C7) (not ?E7)) (and ?C7 (not ?Z6) (not ?E7)) (and ?E7 (not ?Z6) (not ?C7)))))
(let (($x568358 (not ?G7)))
(let (($x172227 (or $x568358 ?H7)))
(let (($x458907 (not ?J7)))
(let (($x211120 (or $x458907 (and ?V6 ?K7) (and ?G7 ?L7) (and ?Y6 ?M7 ?I7) (and ?S6 ?N7 (not ?A7)) (and ?P6 ?O7 (not ?D7)) (and ?D6 ?P7 (not ?F7)))))
(let (($x605142 (or $x458907 (and ?K7 (not ?L7) (not ?M7) (not ?N7) (not ?O7) (not ?P7)) (and ?L7 (not ?K7) (not ?M7) (not ?N7) (not ?O7) (not ?P7)) (and ?M7 (not ?K7) (not ?L7) (not ?N7) (not ?O7) (not ?P7)) (and ?N7 (not ?K7) (not ?L7) (not ?M7) (not ?O7) (not ?P7)) (and ?O7 (not ?K7) (not ?L7) (not ?M7) (not ?N7) (not ?P7)) (and ?P7 (not ?K7) (not ?L7) (not ?M7) (not ?N7) (not ?O7)))))
(let (($x432729 (not ?Q7)))
(let (($x392177 (or $x432729 ?R7)))
(let (($x513721 (not ?D8)))
(let (($x99644 (or $x513721 (and ?A8 ?E8 ?F8 (<= ?G8 ?U) (>= ?G8 ?U)) (and ?X7 ?H8 ?I8 (<= ?G8 ?T) (>= ?G8 ?T)))))
(let (($x243126 (not ?P8)))
(let (($x858661 (or $x243126 ?Q8)))
(let (($x471551 (not ?R8)))
(let (($x903372 (or $x471551 ?S8)))
(let (($x513392 (not ?W8)))
(let (($x434091 (or $x513392 ?X8)))
(let (($x39427 (not ?C9)))
(let (($x845760 (not ?F9)))
(let (($x609415 (or $x845760 (and ?Z8 ?G9 ?H9 (<= ?I9 ?U) (>= ?I9 ?U)) (and ?W8 ?J9 ?K9 (<= ?I9 ?T) (>= ?I9 ?T)))))
(let (($x810161 (or (not ?O9) (and ?C9 ?P9) (and ?L9 ?Q9) (and ?F9 ?R9 ?N9) (and ?Z8 ?S9 (not ?H9)) (and ?W8 ?T9 (not ?K9)))))
(let (($x472346 (or (not ?O9) (and ?P9 (not ?Q9) (not ?R9) (not ?S9) (not ?T9)) (and ?Q9 (not ?P9) (not ?R9) (not ?S9) (not ?T9)) (and ?R9 (not ?P9) (not ?Q9) (not ?S9) (not ?T9)) (and ?S9 (not ?P9) (not ?Q9) (not ?R9) (not ?T9)) (and ?T9 (not ?P9) (not ?Q9) (not ?R9) (not ?S9)))))
(let (($x632078 (|cp-rel-bb.i| ?A ?B ?C ?D ?E ?F ?G ?H ?I ?J ?K ?L ?M ?N ?O ?P ?Q ?R ?S ?T ?U ?V)))
(let (($x847110 (and $x632078 (= ?H9 (= ?R 1.0)) (= ?K9 (= ?Q 1.0)) (= ?B9 (= ?N 2.0)) (= ?Y8 (= ?N 1.0)) (= ?T8 (not (<= 2.0 ?N))) (= ?O8 (= ?G8 ?P)) (= ?L8 (= ?G8 0.0)) (= ?F8 (= ?R 1.0)) (= ?I8 (= ?Q 1.0)) (= ?C8 (= ?N 2.0)) (= ?Z7 (= ?N 1.0)) (= ?U7 (not (<= 2.0 ?N))) (= ?I7 (= ?B7 0.0)) (= ?A7 (= ?S 1.0)) (= ?D7 (= ?R 1.0)) (= ?U6 (= ?O 3.0)) (= ?R6 (= ?O 2.0)) (= ?M6 (not (<= 3.0 ?O))) (= ?F7 (and ?Y9 ?Z9)) (= ?Z9 (= ?Q 1.0)) (= ?Y9 (= ?O 1.0)) (= ?F6 (not (<= 2.0 ?O))) (= ?C6 (= ?S5 ?P)) (= ?Z5 (= ?S5 0.0)) (= ?R5 (= ?S 1.0)) (= ?U5 (= ?R 1.0)) (= ?O5 (= ?O 3.0)) (= ?L5 (= ?O 2.0)) (= ?G5 (not (<= 3.0 ?O))) (= ?W5 (and ?W9 ?X9)) (= ?X9 (= ?Q 1.0)) (= ?W9 (= ?O 1.0)) (= ?B5 (= ?V9 ?P)) (= ?W4 (not (<= 2.0 ?O))) (= ?T4 (= ?V9 0.0)) (= ?V9 (ite ?U9 ?U 0.0)) (= ?U9 (= ?R 1.0)) (= ?O4 (= ?M 0.0)) (= ?V3 (= ?H4 0.0)) (= ?U3 (= ?B 0.0)) (= ?Q3 (= ?G4 0.0)) (= ?N3 (= ?C 0.0)) (= ?J3 (= ?F4 0.0)) (= ?G3 (= ?D 0.0)) (= ?C3 (= ?E4 0.0)) (= ?Z2 (= ?E 0.0)) (= ?V2 (= ?D4 0.0)) (= ?S2 (= ?F 0.0)) (= ?O2 (= ?C4 0.0)) (= ?L2 (= ?G 0.0)) (= ?H2 (= ?B4 0.0)) (= ?E2 (= ?H 0.0)) (= ?A2 (= ?A4 0.0)) (= ?X1 (= ?I 0.0)) (= ?T1 (= ?Z3 0.0)) (= ?Q1 (= ?J 0.0)) (= ?M1 (= ?Y3 0.0)) (= ?J1 (= ?K 0.0)) (= ?F1 (= ?X3 0.0)) (= ?C1 (= ?L 0.0)) (= ?W3 (+ 1.0 ?A)) (= ?Z (not (<= ?A 3.0))) (or ?Z4 ?O9) $x472346 $x810161 (or (not ?L9) ?M9) (or (not ?L9) (and ?F9 ?M9 (not ?N9))) (or $x845760 (and ?G9 (not ?J9)) (and ?J9 (not ?G9))) $x609415 (or $x39427 (and ?D9 (not ?E9)) (and ?E9 (not ?D9))) (or $x39427 (and ?R8 ?D9 (not ?Y8)) (and ?U8 ?E9 (not ?B9))) (or (not ?Z8) ?A9) (or (not ?Z8) (and ?U8 ?A9 ?B9)) $x434091 (or $x513392 (and ?R8 ?X8 ?Y8)) (or (not ?U8) ?V8) (or (not ?U8) (and ?P8 ?V8 (not ?T8))) $x903372 (or $x471551 (and ?P8 ?S8 ?T8)) $x858661 (or $x243126 (and ?M8 ?Q8)) (or (not ?M8) ?N8) (or (not ?M8) (and ?J8 ?N8 ?O8)) (or (not ?J8) ?K8) (or (not ?J8) (and ?D8 ?K8 (not ?L8))) (or $x513721 (and ?E8 (not ?H8)) (and ?H8 (not ?E8))) $x99644 (or (not ?A8) ?B8) (or (not ?A8) (and ?V7 ?B8 ?C8)) (or (not ?X7) ?Y7) (or (not ?X7) (and ?S7 ?Y7 ?Z7)) (or (not ?V7) ?W7) (or (not ?V7) (and ?Q7 ?W7 (not ?U7))) (or (not ?S7) ?T7) (or (not ?S7) (and ?Q7 ?T7 ?U7)) $x392177 (or $x432729 (and ?J7 ?R7)) $x605142 $x211120 $x172227 (or $x568358 (and ?Y6 ?H7 (not ?I7))) $x268889 $x637560 (or $x810008 (and ?W6 (not ?X6)) (and ?X6 (not ?W6))) (or $x810008 (and ?K6 ?W6 (not ?R6)) (and ?N6 ?X6 (not ?U6))) (or (not ?S6) ?T6) (or (not ?S6) (and ?N6 ?T6 ?U6)) (or (not ?P6) ?Q6) (or (not ?P6) (and ?K6 ?Q6 ?R6)) $x143048 (or $x232935 (and ?I6 ?O6 (not ?M6))) $x608715 (or $x346105 (and ?I6 ?L6 ?M6)) $x562232 (or $x128537 (and ?G6 ?J6)) (or (not ?G6) ?H6) (or (not ?G6) (and ?A6 ?H6 (not ?F6))) $x148994 (or $x646241 (and ?A6 ?E6 ?F6)) $x191709 (or $x686233 (and ?X5 ?B6 ?C6)) $x568120 (or $x507957 (and ?P5 ?Y5 (not ?Z5))) $x606033 $x179891 (or (not ?M5) ?N5) (or (not ?M5) (and ?H5 ?N5 ?O5)) (or (not ?J5) ?K5) (or (not ?J5) (and ?E5 ?K5 ?L5)) (or (not ?H5) ?I5) (or (not ?H5) (and ?C5 ?I5 (not ?G5))) (or (not ?E5) ?F5) (or (not ?E5) (and ?C5 ?F5 ?G5)) (or (not ?C5) ?D5) (or (not ?C5) (and ?X4 ?D5)) (or (not ?Z4) ?A5) (or (not ?Z4) (and ?R4 ?A5 ?B5)) (or (not ?X4) ?Y4) (or (not ?X4) (and ?P4 ?Y4 (not ?W4))) (or (not ?U4) ?V4) (or (not ?U4) (and ?P4 ?V4 ?W4)) (or (not ?R4) ?S4) (or (not ?R4) (and ?M4 ?S4 (not ?T4))) (or (not ?P4) ?Q4) (or (not ?P4) (and ?I4 ?Q4 (not ?O4))) (or (not ?M4) ?N4) (or (not ?M4) (and ?I4 ?N4 ?O4)) $x522389 $x642057 (or (not ?S3) ?T3) (or (not ?S3) (and ?O3 ?T3 ?U3)) (or (not ?O3) (and ?P3 (not ?R3)) (and ?R3 (not ?P3))) (or (not ?O3) (and ?L3 ?P3 ?Q3) (and ?H3 ?R3 (not ?N3))) (or (not ?L3) ?M3) (or (not ?L3) (and ?H3 ?M3 ?N3)) (or (not ?H3) (and ?I3 (not ?K3)) (and ?K3 (not ?I3))) (or (not ?H3) (and ?E3 ?I3 ?J3) (and ?A3 ?K3 (not ?G3))) (or (not ?E3) ?F3) (or (not ?E3) (and ?A3 ?F3 ?G3)) (or (not ?A3) (and ?B3 (not ?D3)) (and ?D3 (not ?B3))) (or (not ?A3) (and ?X2 ?B3 ?C3) (and ?T2 ?D3 (not ?Z2))) (or (not ?X2) ?Y2) (or (not ?X2) (and ?T2 ?Y2 ?Z2)) (or (not ?T2) (and ?U2 (not ?W2)) (and ?W2 (not ?U2))) (or (not ?T2) (and ?Q2 ?U2 ?V2) (and ?M2 ?W2 (not ?S2))) (or (not ?Q2) ?R2) (or (not ?Q2) (and ?M2 ?R2 ?S2)) (or (not ?M2) (and ?N2 (not ?P2)) (and ?P2 (not ?N2))) (or (not ?M2) (and ?J2 ?N2 ?O2) (and ?F2 ?P2 (not ?L2))) (or (not ?J2) ?K2) (or (not ?J2) (and ?F2 ?K2 ?L2)) (or (not ?F2) (and ?G2 (not ?I2)) (and ?I2 (not ?G2))) (or (not ?F2) (and ?C2 ?G2 ?H2) (and ?Y1 ?I2 (not ?E2))) (or (not ?C2) ?D2) (or (not ?C2) (and ?Y1 ?D2 ?E2)) (or (not ?Y1) (and ?Z1 (not ?B2)) (and ?B2 (not ?Z1))) (or (not ?Y1) (and ?V1 ?Z1 ?A2) (and ?R1 ?B2 (not ?X1))) (or (not ?V1) ?W1) (or (not ?V1) (and ?R1 ?W1 ?X1)) (or (not ?R1) (and ?S1 (not ?U1)) (and ?U1 (not ?S1))) (or (not ?R1) (and ?O1 ?S1 ?T1) (and ?K1 ?U1 (not ?Q1))) (or (not ?O1) ?P1) (or (not ?O1) (and ?K1 ?P1 ?Q1)) (or (not ?K1) (and ?L1 (not ?N1)) (and ?N1 (not ?L1))) (or (not ?K1) (and ?H1 ?L1 ?M1) (and ?D1 ?N1 (not ?J1))) (or (not ?H1) ?I1) (or (not ?H1) (and ?D1 ?I1 ?J1)) (or (not ?D1) (and ?E1 (not ?G1)) (and ?G1 (not ?E1))) (or (not ?D1) (and ?A1 ?E1 ?F1) (and ?W ?G1 (not ?C1))) (or (not ?A1) ?B1) (or (not ?A1) (and ?W ?B1 ?C1)) (or (not ?W) ?Y) (or (not ?W) (and ?X ?Y (not ?Z))) (= ?N9 (= ?I9 0.0)))))
(=> $x847110 $x306773))))))))))))))))))))))))))))))))))))))))))))))
)
(assert (forall ((?A Real) (?B Real) (?C Real) (?D Real) (?E Real) (?F Real) (?G Real) (?H Real) (?I Real) (?J Real) (?K Real) (?L Real) (?M Real) (?N Real) (?O Real) (?P Real) (?Q Real) (?R Real) (?S Real) (?T Real) (?U Real) (?V Real) (?W Bool) )(let (($x595969 (|cp-rel-__UFO__0| ?A ?B ?C ?D ?E ?F ?G ?H ?I ?J ?K ?L ?M ?N ?O ?P ?Q ?R ?S ?T ?U ?V)))
(=> (and $x595969 (= ?W true)) $x595969)))
)
(assert (forall ((?A Real) (?B Real) (?C Real) (?D Real) (?E Real) (?F Real) (?G Real) (?H Real) (?I Real) (?J Real) (?K Real) (?L Real) (?M Real) (?N Real) (?O Real) (?P Real) (?Q Real) (?R Real) (?S Real) (?T Real) (?U Real) (?V Real) (?W Bool) (?X Bool) (?Y Bool) (?Z Bool) (?A1 Bool) (?B1 Bool) (?C1 Bool) (?D1 Bool) (?E1 Bool) (?F1 Bool) (?G1 Bool) (?H1 Bool) (?I1 Bool) (?J1 Bool) (?K1 Bool) (?L1 Bool) (?M1 Bool) (?N1 Bool) (?O1 Bool) (?P1 Bool) (?Q1 Bool) (?R1 Bool) (?S1 Bool) (?T1 Bool) (?U1 Bool) (?V1 Bool) (?W1 Bool) (?X1 Bool) (?Y1 Bool) (?Z1 Bool) (?A2 Bool) (?B2 Bool) (?C2 Bool) (?D2 Bool) (?E2 Bool) (?F2 Bool) (?G2 Bool) (?H2 Bool) (?I2 Bool) (?J2 Bool) (?K2 Bool) (?L2 Bool) (?M2 Bool) (?N2 Bool) (?O2 Bool) (?P2 Bool) (?Q2 Bool) (?R2 Bool) (?S2 Bool) (?T2 Bool) (?U2 Bool) (?V2 Bool) (?W2 Bool) (?X2 Bool) (?Y2 Bool) (?Z2 Bool) (?A3 Bool) (?B3 Bool) (?C3 Bool) (?D3 Bool) (?E3 Bool) (?F3 Bool) (?G3 Bool) (?H3 Bool) (?I3 Bool) (?J3 Bool) (?K3 Bool) (?L3 Bool) (?M3 Bool) (?N3 Bool) (?O3 Bool) (?P3 Bool) (?Q3 Bool) (?R3 Bool) (?S3 Bool) (?T3 Bool) (?U3 Bool) (?V3 Bool) (?W3 Real) (?X3 Real) (?Y3 Real) (?Z3 Real) (?A4 Real) (?B4 Real) (?C4 Real) (?D4 Real) (?E4 Real) (?F4 Real) (?G4 Real) (?H4 Real) (?I4 Bool) (?J4 Bool) (?K4 Bool) (?L4 Bool) (?M4 Bool) (?N4 Bool) (?O4 Bool) (?P4 Bool) (?Q4 Bool) (?R4 Bool) (?S4 Bool) (?T4 Bool) (?U4 Bool) (?V4 Bool) (?W4 Bool) (?X4 Bool) (?Y4 Bool) (?Z4 Bool) (?A5 Bool) (?B5 Bool) (?C5 Bool) (?D5 Bool) (?E5 Bool) (?F5 Bool) (?G5 Bool) (?H5 Bool) (?I5 Bool) (?J5 Bool) (?K5 Bool) (?L5 Bool) (?M5 Bool) (?N5 Bool) (?O5 Bool) (?P5 Bool) (?Q5 Real) (?R5 Bool) (?S5 Bool) (?T5 Bool) (?U5 Bool) (?V5 Bool) (?W5 Bool) (?X5 Bool) (?Y5 Bool) (?Z5 Bool) (?A6 Bool) (?B6 Bool) (?C6 Bool) (?D6 Bool) (?E6 Bool) (?F6 Bool) (?G6 Bool) (?H6 Bool) (?I6 Bool) (?J6 Bool) (?K6 Bool) (?L6 Bool) (?M6 Bool) (?N6 Bool) (?O6 Bool) (?P6 Bool) (?Q6 Bool) (?R6 Bool) (?S6 Bool) (?T6 Bool) (?U6 Bool) (?V6 Bool) (?W6 Bool) (?X6 Bool) (?Y6 Bool) (?Z6 Real) (?A7 Bool) (?B7 Bool) (?C7 Bool) (?D7 Bool) (?E7 Bool) (?F7 Bool) (?G7 Bool) (?H7 Bool) (?I7 Bool) (?J7 Bool) (?K7 Bool) (?L7 Bool) (?M7 Bool) (?N7 Bool) (?O7 Bool) (?P7 Bool) (?Q7 Bool) (?R7 Bool) (?S7 Bool) (?T7 Bool) (?U7 Bool) (?V7 Bool) (?W7 Bool) (?X7 Bool) (?Y7 Bool) (?Z7 Bool) (?A8 Bool) (?B8 Bool) (?C8 Bool) (?D8 Bool) (?E8 Real) (?F8 Bool) (?G8 Bool) (?H8 Bool) (?I8 Bool) (?J8 Bool) (?K8 Bool) (?L8 Bool) (?M8 Real) (?N8 Bool) (?O8 Bool) (?P8 Bool) (?Q8 Bool) (?R8 Bool) (?S8 Bool) (?T8 Bool) (?U8 Bool) (?V8 Bool) (?W8 Bool) )(let (($x247356 (or (not ?I4) (and ?S3 ?J4 ?V3) (and ?O3 ?K4 (not ?U3)) (and ?X ?L4 ?Z))))
(let (($x327017 (or (not ?I4) (and ?J4 (not ?K4) (not ?L4)) (and ?K4 (not ?J4) (not ?L4)) (and ?L4 (not ?J4) (not ?K4)))))
(let (($x507957 (not ?U4)))
(let (($x568120 (or $x507957 ?V4)))
(let (($x686233 (not ?X4)))
(let (($x191709 (or $x686233 ?Y4)))
(let (($x646241 (not ?A5)))
(let (($x148994 (or $x646241 ?B5)))
(let (($x128537 (not ?F5)))
(let (($x562232 (or $x128537 ?G5)))
(let (($x346105 (not ?H5)))
(let (($x608715 (or $x346105 ?I5)))
(let (($x232935 (not ?K5)))
(let (($x143048 (or $x232935 ?L5)))
(let (($x529918 (or (not ?R8) (and ?C5 ?S8 (not ?J5)) (and ?F5 ?T8 (not ?M5)))))
(let (($x818253 (not ?N5)))
(let (($x565430 (or $x818253 (and ?K5 ?O5 ?P5 (<= ?Q5 ?V) (>= ?Q5 ?V)) (and ?H5 ?R5 ?S5 (<= ?Q5 ?U) (>= ?Q5 ?U)) (and ?U4 ?T5 ?U5 (<= ?Q5 ?T) (>= ?Q5 ?T)))))
(let (($x872227 (or $x818253 (and ?O5 (not ?R5) (not ?T5)) (and ?R5 (not ?O5) (not ?T5)) (and ?T5 (not ?O5) (not ?R5)))))
(let (($x432729 (not ?N6)))
(let (($x392177 (or $x432729 ?O6)))
(let (($x374045 (not ?T6)))
(let (($x513930 (not ?W6)))
(let (($x879520 (or $x513930 (and ?Q6 ?X6 ?Y6 (<= ?Z6 ?V) (>= ?Z6 ?V)) (and ?N6 ?A7 ?B7 (<= ?Z6 ?U) (>= ?Z6 ?U)) (and ?B6 ?C7 ?D7 (<= ?Z6 ?T) (>= ?Z6 ?T)))))
(let (($x406369 (or $x513930 (and ?X6 (not ?A7) (not ?C7)) (and ?A7 (not ?X6) (not ?C7)) (and ?C7 (not ?X6) (not ?A7)))))
(let (($x864270 (not ?H7)))
(let (($x317704 (or $x864270 (and ?T6 ?I7) (and ?E7 ?J7) (and ?W6 ?K7 ?G7) (and ?Q6 ?L7 (not ?Y6)) (and ?N6 ?M7 (not ?B7)) (and ?B6 ?N7 (not ?D7)))))
(let (($x482823 (or $x864270 (and ?I7 (not ?J7) (not ?K7) (not ?L7) (not ?M7) (not ?N7)) (and ?J7 (not ?I7) (not ?K7) (not ?L7) (not ?M7) (not ?N7)) (and ?K7 (not ?I7) (not ?J7) (not ?L7) (not ?M7) (not ?N7)) (and ?L7 (not ?I7) (not ?J7) (not ?K7) (not ?M7) (not ?N7)) (and ?M7 (not ?I7) (not ?J7) (not ?K7) (not ?L7) (not ?N7)) (and ?N7 (not ?I7) (not ?J7) (not ?K7) (not ?L7) (not ?M7)))))
(let (($x471551 (not ?O7)))
(let (($x903372 (or $x471551 ?P7)))
(let (($x513392 (not ?T7)))
(let (($x434091 (or $x513392 ?U7)))
(let (($x144755 (or (not ?U8) (and ?Q7 ?V8 (not ?X7)) (and ?T7 ?W8 (not ?A8)))))
(let (($x37828 (not ?B8)))
(let (($x846923 (or $x37828 (and ?Y7 ?C8 ?D8 (<= ?E8 ?U) (>= ?E8 ?U)) (and ?V7 ?F8 ?G8 (<= ?E8 ?T) (>= ?E8 ?T)))))
(let (($x414086 (not ?H8)))
(let (($x580156 (or $x414086 ?I8)))
(let (($x872337 (or ?U8 ?R8 (and ?R4 (not ?Z4)) (and ?M4 ?T4) (and ?H8 (not ?K8)) (and ?B8 ?J8) (and ?Y7 (not ?D8)) (and ?V7 (not ?G8)) (and ?V5 (not ?A6)) (and ?N5 ?X5) (and ?K5 (not ?P5)) (and ?H5 (not ?S5)) (and ?U4 (not ?U5)))))
(let (($x481469 (|cp-rel-bb.i| ?A ?B ?C ?D ?E ?F ?G ?H ?I ?J ?K ?L ?M ?N ?O ?P ?Q ?R ?S ?T ?U ?V)))
(let (($x810547 (and $x481469 (= ?J8 (= ?E8 0.0)) (= ?D8 (= ?R 1.0)) (= ?G8 (= ?Q 1.0)) (= ?A8 (= ?N 2.0)) (= ?X7 (= ?N 1.0)) (= ?S7 (not (<= 2.0 ?N))) (= ?G7 (= ?Z6 0.0)) (= ?Y6 (= ?S 1.0)) (= ?B7 (= ?R 1.0)) (= ?S6 (= ?O 3.0)) (= ?P6 (= ?O 2.0)) (= ?K6 (not (<= 3.0 ?O))) (= ?D7 (and ?P8 ?Q8)) (= ?Q8 (= ?Q 1.0)) (= ?P8 (= ?O 1.0)) (= ?D6 (not (<= 2.0 ?O))) (= ?A6 (= ?Q5 ?P)) (= ?X5 (= ?Q5 0.0)) (= ?P5 (= ?S 1.0)) (= ?S5 (= ?R 1.0)) (= ?M5 (= ?O 3.0)) (= ?J5 (= ?O 2.0)) (= ?E5 (not (<= 3.0 ?O))) (= ?U5 (and ?N8 ?O8)) (= ?O8 (= ?Q 1.0)) (= ?N8 (= ?O 1.0)) (= ?Z4 (= ?M8 ?P)) (= ?W4 (not (<= 2.0 ?O))) (= ?T4 (= ?M8 0.0)) (= ?M8 (ite ?L8 ?U 0.0)) (= ?L8 (= ?R 1.0)) (= ?O4 (= ?M 0.0)) (= ?V3 (= ?H4 0.0)) (= ?U3 (= ?B 0.0)) (= ?Q3 (= ?G4 0.0)) (= ?N3 (= ?C 0.0)) (= ?J3 (= ?F4 0.0)) (= ?G3 (= ?D 0.0)) (= ?C3 (= ?E4 0.0)) (= ?Z2 (= ?E 0.0)) (= ?V2 (= ?D4 0.0)) (= ?S2 (= ?F 0.0)) (= ?O2 (= ?C4 0.0)) (= ?L2 (= ?G 0.0)) (= ?H2 (= ?B4 0.0)) (= ?E2 (= ?H 0.0)) (= ?A2 (= ?A4 0.0)) (= ?X1 (= ?I 0.0)) (= ?T1 (= ?Z3 0.0)) (= ?Q1 (= ?J 0.0)) (= ?M1 (= ?Y3 0.0)) (= ?J1 (= ?K 0.0)) (= ?F1 (= ?X3 0.0)) (= ?C1 (= ?L 0.0)) (= ?W3 (+ 1.0 ?A)) (= ?Z (not (<= ?A 3.0))) $x872337 $x580156 (or $x414086 (and ?B8 ?I8 (not ?J8))) (or $x37828 (and ?C8 (not ?F8)) (and ?F8 (not ?C8))) $x846923 (or (not ?U8) (and ?V8 (not ?W8)) (and ?W8 (not ?V8))) $x144755 (or (not ?Y7) ?Z7) (or (not ?Y7) (and ?T7 ?Z7 ?A8)) (or (not ?V7) ?W7) (or (not ?V7) (and ?Q7 ?W7 ?X7)) $x434091 (or $x513392 (and ?O7 ?U7 (not ?S7))) (or (not ?Q7) ?R7) (or (not ?Q7) (and ?O7 ?R7 ?S7)) $x903372 (or $x471551 (and ?H7 ?P7)) $x482823 $x317704 (or (not ?E7) ?F7) (or (not ?E7) (and ?W6 ?F7 (not ?G7))) $x406369 $x879520 (or $x374045 (and ?U6 (not ?V6)) (and ?V6 (not ?U6))) (or $x374045 (and ?I6 ?U6 (not ?P6)) (and ?L6 ?V6 (not ?S6))) (or (not ?Q6) ?R6) (or (not ?Q6) (and ?L6 ?R6 ?S6)) $x392177 (or $x432729 (and ?I6 ?O6 ?P6)) (or (not ?L6) ?M6) (or (not ?L6) (and ?G6 ?M6 (not ?K6))) (or (not ?I6) ?J6) (or (not ?I6) (and ?G6 ?J6 ?K6)) (or (not ?G6) ?H6) (or (not ?G6) (and ?E6 ?H6)) (or (not ?E6) ?F6) (or (not ?E6) (and ?Y5 ?F6 (not ?D6))) (or (not ?B6) ?C6) (or (not ?B6) (and ?Y5 ?C6 ?D6)) (or (not ?Y5) ?Z5) (or (not ?Y5) (and ?V5 ?Z5 ?A6)) (or (not ?V5) ?W5) (or (not ?V5) (and ?N5 ?W5 (not ?X5))) $x872227 $x565430 (or (not ?R8) (and ?S8 (not ?T8)) (and ?T8 (not ?S8))) $x529918 $x143048 (or $x232935 (and ?F5 ?L5 ?M5)) $x608715 (or $x346105 (and ?C5 ?I5 ?J5)) $x562232 (or $x128537 (and ?A5 ?G5 (not ?E5))) (or (not ?C5) ?D5) (or (not ?C5) (and ?A5 ?D5 ?E5)) $x148994 (or $x646241 (and ?X4 ?B5)) $x191709 (or $x686233 (and ?P4 ?Y4 (not ?W4))) $x568120 (or $x507957 (and ?P4 ?V4 ?W4)) (or (not ?R4) ?S4) (or (not ?R4) (and ?M4 ?S4 (not ?T4))) (or (not ?P4) ?Q4) (or (not ?P4) (and ?I4 ?Q4 (not ?O4))) (or (not ?M4) ?N4) (or (not ?M4) (and ?I4 ?N4 ?O4)) $x327017 $x247356 (or (not ?S3) ?T3) (or (not ?S3) (and ?O3 ?T3 ?U3)) (or (not ?O3) (and ?P3 (not ?R3)) (and ?R3 (not ?P3))) (or (not ?O3) (and ?L3 ?P3 ?Q3) (and ?H3 ?R3 (not ?N3))) (or (not ?L3) ?M3) (or (not ?L3) (and ?H3 ?M3 ?N3)) (or (not ?H3) (and ?I3 (not ?K3)) (and ?K3 (not ?I3))) (or (not ?H3) (and ?E3 ?I3 ?J3) (and ?A3 ?K3 (not ?G3))) (or (not ?E3) ?F3) (or (not ?E3) (and ?A3 ?F3 ?G3)) (or (not ?A3) (and ?B3 (not ?D3)) (and ?D3 (not ?B3))) (or (not ?A3) (and ?X2 ?B3 ?C3) (and ?T2 ?D3 (not ?Z2))) (or (not ?X2) ?Y2) (or (not ?X2) (and ?T2 ?Y2 ?Z2)) (or (not ?T2) (and ?U2 (not ?W2)) (and ?W2 (not ?U2))) (or (not ?T2) (and ?Q2 ?U2 ?V2) (and ?M2 ?W2 (not ?S2))) (or (not ?Q2) ?R2) (or (not ?Q2) (and ?M2 ?R2 ?S2)) (or (not ?M2) (and ?N2 (not ?P2)) (and ?P2 (not ?N2))) (or (not ?M2) (and ?J2 ?N2 ?O2) (and ?F2 ?P2 (not ?L2))) (or (not ?J2) ?K2) (or (not ?J2) (and ?F2 ?K2 ?L2)) (or (not ?F2) (and ?G2 (not ?I2)) (and ?I2 (not ?G2))) (or (not ?F2) (and ?C2 ?G2 ?H2) (and ?Y1 ?I2 (not ?E2))) (or (not ?C2) ?D2) (or (not ?C2) (and ?Y1 ?D2 ?E2)) (or (not ?Y1) (and ?Z1 (not ?B2)) (and ?B2 (not ?Z1))) (or (not ?Y1) (and ?V1 ?Z1 ?A2) (and ?R1 ?B2 (not ?X1))) (or (not ?V1) ?W1) (or (not ?V1) (and ?R1 ?W1 ?X1)) (or (not ?R1) (and ?S1 (not ?U1)) (and ?U1 (not ?S1))) (or (not ?R1) (and ?O1 ?S1 ?T1) (and ?K1 ?U1 (not ?Q1))) (or (not ?O1) ?P1) (or (not ?O1) (and ?K1 ?P1 ?Q1)) (or (not ?K1) (and ?L1 (not ?N1)) (and ?N1 (not ?L1))) (or (not ?K1) (and ?H1 ?L1 ?M1) (and ?D1 ?N1 (not ?J1))) (or (not ?H1) ?I1) (or (not ?H1) (and ?D1 ?I1 ?J1)) (or (not ?D1) (and ?E1 (not ?G1)) (and ?G1 (not ?E1))) (or (not ?D1) (and ?A1 ?E1 ?F1) (and ?W ?G1 (not ?C1))) (or (not ?A1) ?B1) (or (not ?A1) (and ?W ?B1 ?C1)) (or (not ?W) ?Y) (or (not ?W) (and ?X ?Y (not ?Z))) (= ?K8 (= ?E8 ?P)))))
(=> $x810547 |cp-rel-UnifiedReturnBlock|)))))))))))))))))))))))))))))))))))))))))
)
(assert (not cp-rel-UnifiedReturnBlock))
(check-sat)
